JulietBench/Juliet_Based_Patch_Bench/linux/CWE-189-Numeric-Errors/CVE_2011_2521_fc66c5210ec2539e800e87d7b3a985323c7be96e/solverx86_assign_hw_event_Snippet.smt2
; benchmark generated from python API
(set-info :status unknown)
(declare-fun R () (_ BitVec 32))
(declare-fun rdi () (_ BitVec 64))
(assert
 (let (($x156 (= (_ bv0 32) R)))
 (let ((?x6 ((_ extract 31 0) rdi)))
 (let (($x11 (= (_ bv48 32) ?x6)))
 (let (($x158 (and $x11 $x156)))
 (let (($x37 (and (distinct (_ bv48 32) ?x6) true)))
 (let (($x48 (bvsge (_ bv31 32) ?x6)))
 (let (($x157 (and $x48 $x37 $x156)))
 (let ((?x153 (bvadd (_ bv745 32) ?x6)))
 (let (($x160 (= R ?x153)))
 (let (($x148 (bvslt (_ bv31 32) ?x6)))
 (let (($x161 (and $x148 $x37 $x160)))
 (let (($x162 (or $x161 $x157 $x158)))
 (let (($x165 (not $x162)))
 (let (($x155 (= (_ bv777 32) R)))
 (let (($x152 (and $x148 $x37 $x155)))
 (let (($x159 (or $x152 $x157 $x158)))
 (let (($x164 (not $x159)))
 (let (($x166 (and $x164 $x165)))
 (let (($x163 (and $x159 $x162)))
 (let (($x167 (or $x163 $x166)))
 (not $x167))))))))))))))))))))))
(check-sat)
